
Log started (V12.10.0.0) Sun Apr  4 08:35:49 2021


Problem 'asset.lp' read.
Read time = 0.00 sec. (0.08 ticks)
New value for default parallel thread count: 1
New value for time limit in seconds: 300
Version identifier: 12.10.0.0 | 2019-11-26 | 843d4de
CPXPARAM_Threads                                 1
CPXPARAM_TimeLimit                               300
Found incumbent of value -0.903407 after 0.00 sec. (0.04 ticks)
Tried aggregator 3 times.
MIP Presolve eliminated 266 rows and 194 columns.
MIP Presolve modified 689 coefficients.
Aggregator did 232 substitutions.
Reduced MIP has 344 rows, 347 columns, and 1262 nonzeros.
Reduced MIP has 289 binaries, 31 generals, 0 SOSs, and 0 indicators.
Presolve time = 0.00 sec. (3.17 ticks)
Probing fixed 52 vars, tightened 9 bounds.
Probing time = 0.00 sec. (0.65 ticks)
Cover probing fixed 0 vars, tightened 49 bounds.
Tried aggregator 2 times.
MIP Presolve eliminated 129 rows and 103 columns.
MIP Presolve modified 41 coefficients.
Aggregator did 8 substitutions.
Reduced MIP has 207 rows, 230 columns, and 713 nonzeros.
Reduced MIP has 192 binaries, 11 generals, 0 SOSs, and 0 indicators.
Presolve time = 0.00 sec. (1.37 ticks)
Probing time = 0.00 sec. (0.33 ticks)
Tried aggregator 1 time.
Detecting symmetries...
MIP Presolve modified 4 coefficients.
Reduced MIP has 207 rows, 230 columns, and 713 nonzeros.
Reduced MIP has 192 binaries, 11 generals, 0 SOSs, and 0 indicators.
Presolve time = 0.00 sec. (0.51 ticks)
Probing time = 0.00 sec. (0.33 ticks)
Clique table members: 413.
MIP emphasis: balance optimality and feasibility.
MIP search method: dynamic search.
Parallel mode: none, using 1 thread.
Root relaxation solution time = 0.00 sec. (0.98 ticks)

        Nodes                                         Cuts/
   Node  Left     Objective  IInf  Best Integer    Best Bound    ItCnt     Gap

*     0+    0                           -0.9034      331.1609              --- 
      0     0      158.1156    50       -0.9034      158.1156      134     --- 
*     0+    0                          147.1449      158.1156             7.46%
      0     0      155.7970    50      147.1449      Cuts: 53      177    5.88%
      0     0      155.6104    50      147.1449      Cuts: 39      198    5.75%
*     0+    0                          147.1453      155.6104             5.75%
      0     0        cutoff            147.1453      155.6104      198    5.75%
Detecting symmetries...

Repeating presolve.
Tried aggregator 2 times.
MIP Presolve eliminated 52 rows and 70 columns.
MIP Presolve modified 17 coefficients.
Aggregator did 7 substitutions.
Reduced MIP has 148 rows, 153 columns, and 464 nonzeros.
Reduced MIP has 129 binaries, 5 generals, 0 SOSs, and 0 indicators.
Presolve time = 0.00 sec. (0.57 ticks)
Probing fixed 3 vars, tightened 0 bounds.
Probing time = 0.00 sec. (0.15 ticks)
Cover probing fixed 0 vars, tightened 9 bounds.
Tried aggregator 1 time.
MIP Presolve eliminated 14 rows and 4 columns.
MIP Presolve modified 48 coefficients.
Reduced MIP has 134 rows, 148 columns, and 426 nonzeros.
Reduced MIP has 125 binaries, 5 generals, 0 SOSs, and 0 indicators.
Presolve time = 0.00 sec. (0.38 ticks)
Probing time = 0.00 sec. (0.13 ticks)
Tried aggregator 1 time.
Detecting symmetries...
Reduced MIP has 134 rows, 148 columns, and 426 nonzeros.
Reduced MIP has 125 binaries, 5 generals, 0 SOSs, and 0 indicators.
Presolve time = 0.00 sec. (0.30 ticks)
Represolve time = 0.00 sec. (2.39 ticks)
Probing time = 0.00 sec. (0.13 ticks)
Clique table members: 132.
MIP emphasis: balance optimality and feasibility.
MIP search method: dynamic search.
Parallel mode: none, using 1 thread.
Root relaxation solution time = 0.00 sec. (0.96 ticks)

        Nodes                                         Cuts/
   Node  Left     Objective  IInf  Best Integer    Best Bound    ItCnt     Gap

*     0+    0                          147.1453      155.6104             5.75%
      0     0      155.6094    32      147.1453      155.6094      300    5.75%
      0     0      155.5084    32      147.1453      Cuts: 26      330    5.68%
      0     0      154.2363    32      147.1453      Cuts: 19      344    4.82%
      0     0      153.5984    32      147.1453       Cuts: 9      358    4.39%
*     0+    0                          147.1455      153.5984             4.39%
      0     0      153.5981    32      147.1455      Cuts: 19      370    4.39%
*     0+    0                          153.1553      153.5981             0.29%
      0     0      153.1586    32      153.1553      Cuts: 14      373    0.00%

GUB cover cuts applied:  1
Clique cuts applied:  8
Cover cuts applied:  4
Implied bound cuts applied:  4
Mixed integer rounding cuts applied:  5
Zero-half cuts applied:  6
Lift and project cuts applied:  6
Gomory fractional cuts applied:  9

Root node processing (before b&c):
  Real time             =    0.04 sec. (29.59 ticks)
Sequential b&c:
  Real time             =    0.00 sec. (0.00 ticks)
                          ------------
Total (root+branch&cut) =    0.04 sec. (29.59 ticks)

Solution pool: 5 solutions saved.

MIP - Integer optimal, tolerance (0.0001/1e-06):  Objective =  1.5315527472e+02
Current MIP best bound =  1.5315861395e+02 (gap = 0.00333923, 0.00%)
Solution time =    0.04 sec.  Iterations = 373  Nodes = 0 (1)
Deterministic time = 29.60 ticks  (674.38 ticks/sec)


Incumbent solution
Variable Name           Solution Value
F                           170.000000
f1                            0.934725
f2                           15.910000
y60                           1.000000
y98                           1.000000
y129                          1.000000
y132                          1.000000
y173                          1.000000
y177                          1.000000
y262                          1.000000
y85                           1.000000
y219                          1.000000
y150                          1.000000
y251                          1.000000
y108                          1.000000
s1                            6.000000
s16                           6.000000
s38                           6.000000
s40                           6.000000
s45                           6.000000
s60                           6.864980
s74                           6.000000
s93                           6.000000
s98                           6.369148
s100                          6.000000
s101                          6.000000
s105                          6.000000
s114                          6.000000
s115                          6.000000
s129                          6.902691
s130                          6.000000
s132                          6.822446
s154                          6.000000
s156                          6.000000
s157                          6.000000
s173                          6.564506
s174                          6.000000
s176                          6.000000
s177                          6.964670
s179                          6.000000
s185                          6.000000
s204                          6.000000
s205                          6.000000
s207                          6.000000
s217                          6.000000
s236                          6.000000
s242                          6.000000
s243                          6.000000
s250                          6.000000
s259                          6.000000
s262                          6.018447
s85                           6.995517
s219                          7.192169
s103                          6.280000
s150                          7.181052
s251                          7.405114
s108                          7.223988
x212x262x1                    1.000000
x86x173x1                     1.000000
x126x85x1                     1.000000
x41x98x1                      2.000000
x9x177x1                      1.000000
x214x150x1                    1.000000
x222x60x1                     1.000000
x222x132x1                    1.000000
x97x129x1                     1.000000
x86x132x2                     1.000000
x248x129x2                    1.000000
x107x150x2                    1.000000
x126x85x2                     1.000000
x214x251x2                    1.000000
x149x219x2                    1.000000
x97x177x2                     1.000000
x161x262x2                    1.000000
x248x108x3                    1.000000
x107x219x3                    1.000000
x9x108x3                      1.000000
x193x60x3                     1.000000
x193x173x3                    1.000000
x60x0x1                       1.000000
x60x0x3                       1.000000
x98x0x1                       2.000000
x129x0x1                      1.000000
x129x0x2                      1.000000
x132x0x1                      1.000000
x132x0x2                      1.000000
x173x0x1                      1.000000
x173x0x3                      1.000000
x177x0x1                      1.000000
x177x0x2                      1.000000
x262x0x1                      1.000000
x262x251x2                    1.000000
x85x0x1                       1.000000
x85x0x2                       1.000000
x219x0x2                      1.000000
x219x0x3                      1.000000
x150x0x1                      1.000000
x150x0x2                      1.000000
x251x0x2                      2.000000
x108x0x3                      2.000000
s212                          4.630890
z212z262z1                    1.000000
z212z103z1                    1.000000
s86                           4.830224
z86z132z2                     1.000000
z86z173z1                     1.000000
z86z251z2                     1.000000
s248                          5.366181
z248z129z2                    1.000000
z248z108z3                    1.000000
s107                          5.346670
z107z219z3                    1.000000
z107z150z2                    1.000000
s126                          5.651359
z126z85z1                     1.000000
z126z85z2                     1.000000
s41                           4.873697
z41z98z1                      1.000000
s9                            5.275609
z9z177z1                      1.000000
z9z108z3                      1.000000
s214                          5.417062
z214z150z1                    1.000000
z214z251z2                    1.000000
s149                          5.517181
z149z219z2                    1.000000
s193                          5.090000
z193z60z3                     1.000000
z193z173z3                    1.000000
s222                          5.468772
z222z60z1                     1.000000
z222z132z1                    1.000000
s97                           5.563617
z97z129z1                     1.000000
z97z177z2                     1.000000
s10                           5.652324
s238                          5.733631
s256                          5.967312
s221                          5.910000
s161                          4.420550
z161z74z2                     1.000000
z161z154z2                    1.000000
z161z262z2                    1.000000
z161z251z2                    1.000000
z262z251z2                    1.000000
All other variables in the range 1-777 are 0.
